ilp_joint/output/shedding_ilp.lp
Maximize
  0.000230426 Z_173_0_0 + 0.00686053497851554 Z_173_0_1
   + 0.852926700247027 Z_173_0_2 + 0.00207271 Z_173_0_3
   + 0.0379096287794346 Z_173_0_4
Subject To
 constraint1_1730: Z_173_0_0 + Z_173_0_1 + Z_173_0_2 + Z_173_0_3
   + Z_173_0_4 <= 1
 constraint2_1730: Z_173_0_0 <= 1
 constraint2_1731: Z_173_0_1 <= 1
 constraint2_1732: Z_173_0_2 <= 1
 constraint2_1733: Z_173_0_3 <= 1
Bounds
Binaries
 Z_173_0_0 Z_173_0_1 Z_173_0_2 Z_173_0_3 Z_173_0_4
End
