ilp_joint/output/shedding_ilp.sol
# Solution for model shedding_srl_ilp
# Objective value = 8.5292670024702699e-01
Z_173_0_0 0
Z_173_0_1 0
Z_173_0_2 1
Z_173_0_3 0
Z_173_0_4 0
